p cnf 1784 2785
-2 0
-3 0
-5 0
-11 0
-13 0
-15 0
-16 0
-351 0
-352 0
-353 0
-354 0
-355 0
-356 0
-357 0
-358 0
-359 0
-360 0
-362 0
-363 0
-364 0
-365 0
-366 0
-367 0
-368 0
-369 0
-370 0
-371 0
-372 0
-373 0
-375 0
-377 0
-378 0
-379 0
-380 0
-381 0
-382 0
-383 0
-386 0
-387 0
-388 0
-389 0
-390 0
-391 0
-392 0
-393 0
-394 0
-395 0
-396 0
-398 0
-399 0
-402 0
-406 0
-413 0
-415 0
-416 0
-417 0
-418 0
-419 0
-420 0
-421 0
-422 0
-423 0
-424 0
-425 0
-426 0
-427 0
-428 0
-429 0
-430 0
-431 0
-432 0
-435 0
-437 0
-439 0
-440 0
-441 0
-453 0
-455 0
-460 0
-461 0
-462 0
-463 0
-464 0
-465 0
-466 0
-467 0
-468 0
-469 0
-470 0
-471 0
-472 0
-473 0
-474 0
-475 0
-476 0
-477 0
-480 0
-481 0
-488 0
-489 0
-490 0
-491 0
-492 0
-493 0
-494 0
-495 0
-496 0
-497 0
-498 0
-499 0
-500 0
-501 0
-502 0
-503 0
-504 0
-505 0
-506 0
-507 0
-509 0
-511 0
-512 0
-513 0
-514 0
-515 0
-526 0
-527 0
-531 0
-532 0
-533 0
-534 0
-535 0
-536 0
-537 0
-538 0
-539 0
-540 0
-541 0
-542 0
-543 0
-544 0
-545 0
-546 0
-547 0
-552 0
-553 0
-554 0
-555 0
-556 0
-557 0
-561 0
-562 0
-563 0
-564 0
-565 0
-566 0
-567 0
-568 0
-569 0
-570 0
-571 0
-572 0
-573 0
-574 0
-612 0
-613 0
-614 0
-615 0
-616 0
-617 0
-618 0
-620 0
-621 0
-625 0
-633 0
-634 0
-638 0
-643 0
-644 0
-645 0
-646 0
-647 0
-648 0
-649 0
-651 0
-654 0
-655 0
-656 0
-657 0
-659 0
-660 0
-661 0
-662 0
-663 0
-664 0
-665 0
-666 0
-667 0
-668 0
-669 0
-670 0
-672 0
-673 0
-674 0
-675 0
-676 0
-677 0
-678 0
-679 0
-680 0
-681 0
-682 0
-683 0
-687 0
-688 0
-689 0
-690 0
-702 0
-703 0
-704 0
-705 0
-706 0
-707 0
-708 0
-709 0
-710 0
-711 0
-712 0
-713 0
-714 0
-715 0
-716 0
-717 0
-718 0
-719 0
-720 0
-721 0
-722 0
-723 0
-724 0
-725 0
-726 0
-727 0
-728 0
-730 0
-731 0
-732 0
-733 0
-734 0
-735 0
-736 0
-737 0
-738 0
-740 0
-741 0
-742 0
-744 0
-745 0
-746 0
-747 0
-748 0
-749 0
-750 0
-751 0
-752 0
-759 0
-769 0
-771 0
-772 0
-773 0
-774 0
-775 0
-776 0
-777 0
-778 0
-779 0
-780 0
-781 0
-782 0
-784 0
-785 0
-794 0
-800 0
-801 0
-802 0
-803 0
-804 0
-805 0
-806 0
-807 0
-808 0
-809 0
-810 0
-820 0
-822 0
-823 0
-824 0
-826 0
-827 0
-829 0
-833 0
-834 0
-838 0
-839 0
-840 0
-841 0
-842 0
-843 0
-844 0
-845 0
-846 0
-847 0
-848 0
-849 0
-850 0
-851 0
-852 0
-853 0
-854 0
-855 0
-856 0
-857 0
-858 0
-859 0
-860 0
-861 0
-862 0
-863 0
-864 0
-865 0
-866 0
-867 0
-868 0
-869 0
-870 0
-871 0
-872 0
-873 0
-874 0
-875 0
-876 0
-877 0
-878 0
-879 0
-880 0
-881 0
-882 0
-883 0
-884 0
-885 0
-886 0
-887 0
-888 0
-889 0
-890 0
-891 0
-892 0
-893 0
-894 0
-895 0
-896 0
-897 0
-898 0
-899 0
-900 0
-901 0
-902 0
-903 0
-904 0
-905 0
-906 0
-907 0
-908 0
-909 0
-910 0
-911 0
-912 0
-913 0
-914 0
-915 0
-916 0
-917 0
-918 0
-919 0
-920 0
-921 0
-922 0
-923 0
-924 0
-925 0
-926 0
-927 0
-928 0
-929 0
-930 0
-931 0
-932 0
-933 0
-934 0
-935 0
-936 0
-937 0
-938 0
-939 0
-940 0
-941 0
-942 0
-943 0
-944 0
-945 0
-946 0
-947 0
-948 0
-949 0
-950 0
-951 0
-952 0
-953 0
-954 0
-955 0
-956 0
-957 0
-958 0
-959 0
-960 0
-961 0
-962 0
-963 0
-964 0
-965 0
-966 0
-967 0
-968 0
-969 0
-970 0
-971 0
-972 0
-973 0
-974 0
-975 0
-976 0
-977 0
-978 0
-979 0
-980 0
-981 0
-982 0
-983 0
-984 0
-985 0
-986 0
-987 0
-988 0
-989 0
-990 0
-991 0
-992 0
-993 0
-994 0
-995 0
-996 0
-997 0
-998 0
-999 0
-1000 0
-1001 0
-1002 0
-1003 0
-1004 0
-1005 0
-1006 0
-1007 0
-1008 0
-1009 0
-1010 0
-1011 0
-1012 0
-1013 0
-1014 0
-1015 0
-1016 0
-1017 0
-1018 0
-1019 0
-1020 0
-1021 0
-1022 0
-1023 0
-1024 0
-1025 0
-1026 0
-1027 0
-1028 0
-1029 0
-1030 0
-1031 0
-1032 0
-1033 0
-1034 0
-1035 0
-1036 0
-1037 0
-1038 0
-1039 0
-1040 0
-1041 0
-1042 0
-1043 0
-1044 0
-1045 0
-1046 0
-1047 0
-1048 0
-1049 0
-1050 0
-1051 0
-1052 0
-1053 0
-1054 0
-1055 0
-1056 0
-1057 0
-1058 0
-1059 0
-1060 0
-1061 0
-1062 0
-1063 0
-1064 0
-1065 0
-1066 0
-1067 0
-1068 0
-1069 0
-1070 0
-1071 0
-1072 0
-1073 0
-1074 0
-1075 0
-1076 0
-1077 0
-1078 0
-1079 0
-1080 0
-1081 0
-1082 0
-1083 0
-1084 0
-1085 0
-1086 0
-1087 0
-1088 0
-1089 0
-1090 0
-1091 0
-1092 0
-1093 0
-1094 0
-1095 0
-1096 0
-1097 0
-1098 0
-1099 0
-1100 0
-1101 0
-1102 0
-1103 0
-1104 0
-1105 0
-1106 0
-1107 0
-1108 0
-1109 0
-1110 0
-1111 0
-1112 0
-1113 0
-1114 0
-1115 0
-1116 0
-1117 0
-1118 0
-1119 0
-1120 0
-1121 0
-1122 0
-1123 0
-1124 0
-1125 0
-1126 0
-1127 0
-1128 0
-1129 0
-1130 0
-1131 0
-1132 0
-1133 0
-1134 0
-1135 0
-1136 0
-1137 0
-1138 0
-1139 0
-1140 0
-1141 0
-1142 0
-1143 0
-1144 0
-1145 0
-1146 0
-1147 0
-1148 0
-1149 0
-1150 0
-1151 0
-1152 0
-1153 0
-1154 0
-1155 0
-1156 0
-1157 0
-1158 0
-1159 0
-1160 0
-1161 0
-1162 0
-1163 0
-1164 0
-1165 0
-1166 0
-1167 0
-1168 0
-1169 0
-1170 0
-1171 0
-1172 0
-1173 0
-1174 0
-1175 0
-1176 0
-1177 0
-1178 0
-1179 0
-1180 0
-1181 0
-1182 0
-1183 0
-1184 0
-1185 0
-1186 0
-1187 0
-1188 0
-1189 0
-1190 0
-1191 0
-1192 0
-1193 0
-1194 0
-1195 0
-1196 0
-1197 0
-1198 0
-1199 0
-1200 0
-1201 0
-1202 0
-1203 0
-1204 0
-1205 0
-1206 0
-1207 0
-1208 0
-1209 0
-1210 0
-1211 0
-1212 0
-1213 0
-1214 0
-1215 0
-1216 0
-1217 0
-1218 0
-1219 0
-1220 0
-1221 0
-1222 0
-1223 0
-1224 0
-1225 0
-1226 0
-1227 0
-1228 0
-1229 0
-1230 0
-1231 0
-1232 0
-1233 0
-1234 0
-1235 0
-1236 0
-1237 0
-1238 0
-1239 0
-1240 0
-1241 0
-1242 0
-1243 0
-1244 0
-1245 0
-1246 0
-1247 0
-1248 0
-1249 0
-1250 0
-1251 0
-1252 0
-1253 0
-1254 0
-1255 0
-1256 0
-1257 0
-1258 0
-1259 0
-1260 0
-1261 0
-1262 0
-1263 0
-1264 0
-1265 0
-1266 0
-1267 0
-1268 0
-1269 0
-1270 0
-1271 0
-1272 0
-1273 0
-1274 0
-1275 0
-1276 0
-1277 0
-1278 0
-1279 0
-1280 0
-1281 0
-1282 0
-1283 0
-1284 0
-1285 0
-1286 0
-1287 0
-1288 0
-1289 0
-1290 0
-1291 0
-1292 0
-1293 0
-1294 0
-1295 0
-1296 0
-1297 0
-1298 0
-1299 0
-1300 0
-1301 0
-1302 0
-1303 0
-1304 0
-1305 0
-1306 0
-1307 0
-1308 0
-1309 0
-1310 0
-1311 0
-1312 0
-1313 0
-1314 0
-1315 0
-1316 0
-1317 0
-1318 0
-1319 0
-1320 0
-1321 0
-1322 0
-1323 0
-1324 0
-1325 0
-1326 0
-1327 0
-1328 0
-1329 0
-1330 0
-1331 0
-1332 0
-1333 0
-1334 0
-1335 0
-1336 0
-1337 0
-1338 0
-1339 0
-1340 0
-1341 0
-1342 0
-1343 0
-1344 0
-1345 0
-1346 0
-1347 0
-1348 0
-1349 0
-1350 0
-1351 0
-1352 0
-1353 0
-1354 0
-1355 0
-1356 0
-1357 0
-1358 0
-1359 0
-1360 0
-1361 0
-1362 0
-1363 0
-1364 0
-1365 0
-1366 0
-1367 0
-1368 0
-1369 0
-1370 0
-1371 0
-1372 0
-1373 0
-1374 0
-1375 0
-1376 0
-1377 0
-1378 0
-1379 0
-1380 0
-1381 0
-1382 0
-1383 0
-1384 0
-1385 0
-1386 0
-1387 0
-1388 0
-1389 0
-1390 0
-1391 0
-1392 0
-1393 0
-1394 0
-1395 0
-1396 0
-1397 0
-1398 0
-1399 0
-1400 0
-1401 0
-1402 0
-1403 0
-1404 0
-1405 0
-1406 0
-1407 0
-1408 0
-1409 0
-1410 0
-1411 0
-1412 0
-1413 0
-1414 0
-1415 0
-1416 0
-1417 0
-1418 0
-1419 0
-1420 0
-1421 0
-1422 0
-1423 0
-1424 0
-1425 0
-1426 0
-1427 0
-1428 0
-1429 0
-1430 0
-1431 0
-1432 0
-1433 0
-1434 0
-1435 0
-1436 0
-1437 0
-1438 0
-1439 0
-1440 0
-1441 0
-1442 0
-1443 0
-1444 0
-1445 0
-1446 0
-1447 0
-1448 0
-1449 0
-1450 0
-1451 0
-1452 0
-1453 0
-1454 0
-1455 0
-1456 0
-1457 0
-1458 0
-1459 0
-1460 0
-1461 0
-1462 0
-1463 0
-1464 0
-1465 0
-1466 0
-1467 0
-1468 0
-1469 0
-1470 0
-1471 0
-1472 0
-1473 0
-1474 0
-1475 0
-1476 0
-1477 0
-1478 0
-1479 0
-1480 0
-1481 0
-1482 0
-1483 0
-1484 0
-1485 0
-1486 0
-1487 0
-1488 0
-1489 0
-1490 0
-1491 0
-1492 0
-1493 0
-1494 0
-1495 0
-1496 0
-1497 0
-1498 0
-1499 0
-1500 0
-1501 0
-1502 0
-1503 0
-1504 0
-1505 0
-1506 0
-1507 0
-1508 0
-1509 0
-1510 0
-1511 0
-1512 0
-1513 0
-1514 0
-1515 0
-1516 0
-1517 0
-1518 0
-1519 0
-1520 0
-1521 0
-1522 0
-1523 0
-1524 0
-1525 0
-1526 0
-1527 0
-1528 0
-1529 0
-1530 0
-1531 0
-1532 0
-1533 0
-1534 0
-1535 0
-1536 0
-1537 0
-1538 0
-1539 0
-1540 0
-1541 0
-1542 0
-1543 0
-1544 0
-1545 0
-1546 0
-1547 0
-1548 0
-1549 0
-1550 0
-1551 0
-1552 0
-1553 0
-1554 0
-1555 0
-1556 0
-1557 0
-1558 0
-1559 0
-1560 0
-1561 0
-1562 0
-1563 0
-1564 0
-1565 0
-1566 0
-1567 0
-1568 0
-1569 0
-1570 0
-1571 0
-1572 0
-1573 0
-1574 0
-1575 0
-1576 0
-1577 0
-1578 0
-1579 0
-1580 0
-1581 0
-1582 0
-1583 0
-1584 0
-1585 0
-1586 0
-1587 0
-1588 0
-1589 0
-1590 0
-1591 0
-1592 0
-1593 0
-1594 0
-1595 0
-1596 0
-1597 0
-1598 0
-1599 0
-1600 0
-1601 0
-1602 0
-1603 0
-1604 0
-1605 0
-1606 0
-1607 0
-1608 0
-1609 0
-1610 0
-1611 0
-1612 0
-1613 0
-1614 0
-1615 0
-1616 0
-1617 0
-1618 0
-1619 0
-1620 0
-1621 0
-1622 0
-1623 0
-1624 0
-1625 0
-1626 0
-1627 0
-1628 0
-1629 0
-1630 0
-1631 0
-1632 0
-1633 0
-1634 0
-1635 0
-1636 0
-1637 0
-1638 0
-1639 0
-1640 0
-1641 0
-1642 0
-1643 0
-1644 0
-1645 0
-1646 0
-1647 0
-1648 0
-1649 0
-1650 0
-1651 0
-1652 0
-1653 0
-1654 0
-1655 0
-1656 0
-1657 0
-1658 0
-1659 0
-1660 0
-1661 0
-1662 0
-1663 0
-1664 0
-1665 0
-1666 0
-1667 0
-1668 0
-1669 0
-1670 0
-1671 0
-1672 0
-1673 0
-1674 0
-1675 0
-1676 0
-1677 0
-1678 0
-1679 0
-1680 0
-1681 0
-1682 0
-1683 0
-1684 0
-1685 0
-1686 0
-1687 0
-1688 0
-1689 0
-1690 0
-1691 0
-1692 0
-1693 0
-1694 0
-1695 0
-1696 0
-1697 0
-1698 0
-1699 0
-1700 0
-1701 0
-1702 0
-1703 0
-1704 0
-1705 0
-1706 0
-1707 0
-1708 0
-1709 0
-1710 0
-1711 0
-1712 0
-1713 0
-1714 0
-1715 0
-1716 0
-1717 0
-1718 0
-1719 0
-1720 0
-1721 0
-1722 0
-1723 0
-1724 0
-1725 0
-1726 0
-1727 0
-1728 0
-1729 0
-1730 0
-1731 0
-1732 0
-1733 0
-1734 0
-1735 0
-1736 0
-1737 0
-1738 0
-1739 0
-1740 0
-1741 0
-1742 0
-1743 0
-1744 0
-1745 0
-1746 0
-1747 0
-1748 0
-1749 0
-1750 0
-1751 0
-1752 0
-1753 0
-1754 0
-1755 0
-1756 0
-1757 0
-1758 0
-1759 0
-1760 0
-1761 0
-1762 0
-1763 0
-1764 0
-1765 0
-1766 0
-1767 0
-1768 0
-1769 0
-1770 0
-1771 0
-1772 0
-1773 0
-1774 0
-1775 0
-1776 0
-1777 0
-1778 0
-1779 0
-1780 0
-1781 0
-1782 0
-1783 0
-1784 0
-4 -1 0
-6 -1 0
-7 -1 0
-8 -1 0
-9 -1 0
-10 -1 0
-12 -1 0
-14 -1 0
-17 -1 0
-18 -1 0
-19 -1 0
-20 -1 0
-4 -1 0
-6 -4 0
-7 -4 0
-8 -4 0
-9 -4 0
-10 -4 0
-12 -4 0
-14 -4 0
-17 -4 0
-18 -4 0
-19 -4 0
-20 -4 0
-6 -1 0
-6 -4 0
-7 -6 0
-8 -6 0
-9 -6 0
-10 -6 0
-12 -6 0
-14 -6 0
-17 -6 0
-18 -6 0
-19 -6 0
-20 -6 0
-96 97 98 99 0
-96 100 0
-96 99 101 102 0
-96 103 104 105 107 108 109 0
-96 106 107 108 109 0
-96 110 0
-96 111 0
-113 97 98 99 0
-113 100 0
-113 99 101 102 0
-113 103 104 105 107 108 109 0
-113 106 107 108 109 0
-113 110 0
-113 111 0
-7 -1 0
-7 -4 0
-7 -6 0
-8 -7 0
-9 -7 0
-10 -7 0
-12 -7 0
-14 -7 0
-17 -7 0
-18 -7 0
-19 -7 0
-20 -7 0
-117 -115 0
-115 116 0
-118 -117 0
-118 116 0
-120 -117 0
-120 116 0
-121 -117 0
-121 116 0
-122 -117 0
-122 116 0
-124 -117 0
-124 116 0
-126 -117 0
-126 116 0
-127 -117 0
-127 116 0
-133 -117 0
-133 116 0
-134 -117 0
-134 116 0
-8 -1 0
-8 -4 0
-8 -6 0
-8 -7 0
-9 -8 0
-10 -8 0
-12 -8 0
-14 -8 0
-17 -8 0
-18 -8 0
-19 -8 0
-20 -8 0
-9 -1 0
-9 -4 0
-9 -6 0
-9 -7 0
-9 -8 0
-10 -9 0
-12 -9 0
-14 -9 0
-17 -9 0
-18 -9 0
-19 -9 0
-20 -9 0
-10 -1 0
-10 -4 0
-10 -6 0
-10 -7 0
-10 -8 0
-10 -9 0
-12 -10 0
-14 -10 0
-17 -10 0
-18 -10 0
-19 -10 0
-20 -10 0
-154 -117 0
-154 116 0
-165 -164 0
-12 -1 0
-12 -4 0
-12 -6 0
-12 -7 0
-12 -8 0
-12 -9 0
-12 -10 0
-14 -12 0
-17 -12 0
-18 -12 0
-19 -12 0
-20 -12 0
-171 -117 0
-171 116 0
-173 -117 0
-173 116 0
-174 -117 0
-174 116 0
-176 -117 0
-176 116 0
-177 -117 0
-177 116 0
-178 -117 0
-178 116 0
-179 -117 0
-179 116 0
-180 -116 0
-180 117 0
-181 -117 0
-181 116 0
-183 -117 0
-183 116 0
-187 -165 0
-194 -117 0
-194 116 0
-203 -165 0
-14 -1 0
-14 -4 0
-14 -6 0
-14 -7 0
-14 -8 0
-14 -9 0
-14 -10 0
-14 -12 0
-17 -14 0
-18 -14 0
-19 -14 0
-20 -14 0
-210 -117 0
-210 116 0
-218 -116 0
-218 117 0
-223 -117 0
-223 116 0
-17 -1 0
-17 -4 0
-17 -6 0
-17 -7 0
-17 -8 0
-17 -9 0
-17 -10 0
-17 -12 0
-17 -14 0
-18 -17 0
-19 -17 0
-20 -17 0
-229 -117 0
-229 116 0
-235 -117 0
-235 116 0
-236 -117 0
-236 116 0
-237 -116 0
-237 117 0
-238 -117 0
-238 116 0
-239 -117 0
-239 116 0
-240 -117 0
-240 116 0
-241 -117 0
-241 116 0
-247 -117 0
-247 116 0
-255 -116 0
-255 117 0
-257 -117 0
-257 116 0
-258 -117 0
-258 116 0
-262 -116 0
-262 117 0
-263 -117 0
-263 116 0
-264 -116 0
-264 117 0
-266 -117 0
-266 116 0
-267 -117 0
-267 116 0
-268 -117 0
-268 116 0
-269 -117 0
-269 116 0
-270 -117 0
-270 116 0
-279 -117 0
-279 116 0
-280 -117 0
-280 116 0
-282 -116 0
-282 117 0
-286 -116 0
-286 117 0
-292 -117 0
-292 116 0
-294 -116 0
-294 117 0
-295 -116 0
-295 117 0
-317 -116 0
-317 117 0
-327 -116 0
-327 117 0
-328 -116 0
-328 117 0
-18 -1 0
-18 -4 0
-18 -6 0
-18 -7 0
-18 -8 0
-18 -9 0
-18 -10 0
-18 -12 0
-18 -14 0
-18 -17 0
-19 -18 0
-20 -18 0
-19 -1 0
-19 -4 0
-19 -6 0
-19 -7 0
-19 -8 0
-19 -9 0
-19 -10 0
-19 -12 0
-19 -14 0
-19 -17 0
-19 -18 0
-20 -19 0
-336 -117 0
-336 116 0
-338 -116 0
-338 117 0
-20 -1 0
-20 -4 0
-20 -6 0
-20 -7 0
-20 -8 0
-20 -9 0
-20 -10 0
-20 -12 0
-20 -14 0
-20 -17 0
-20 -18 0
-20 -19 0
-349 -348 0
-348 104 105 0
-350 -348 0
-361 -348 0
-374 -348 0
-376 -348 0
-350 -104 0
-350 -105 0
-350 -107 0
-350 -108 0
-350 -348 0
-361 -350 0
-374 -350 0
-376 -350 0
-361 -349 0
-361 107 108 0
-361 -348 0
-361 -350 0
-374 -361 0
-376 -361 0
-374 349 0
-374 107 108 0
-374 -348 0
-374 -350 0
-374 -361 0
-376 -374 0
-376 349 0
-376 104 105 0
-376 -348 0
-376 -350 0
-376 -361 0
-376 -374 0
-98 -97 0
-99 -97 0
-107 -98 0
-108 -98 0
-99 -98 0
-98 -97 0
-385 -384 0
-385 97 0
-385 -384 0
-400 101 0
-403 -401 0
-401 4 6 7 8 9 10 14 17 18 19 20 0
-404 -403 0
-407 408 0
-409 -407 0
-410 -409 0
-411 -409 0
-409 412 0
-409 -407 0
-412 -410 0
-412 -411 0
-412 -408 0
-412 -408 0
-410 -409 0
-412 -410 0
-414 -410 0
-411 -410 0
-411 -409 0
-412 -411 0
-414 -411 0
-411 -410 0
-433 107 108 0
-438 -433 0
-442 443 444 445 446 447 448 0
-449 443 444 445 446 447 448 450 451 0
-452 -449 0
-454 -449 0
-456 -449 0
-457 -449 0
-458 -449 0
-459 -449 0
-438 -433 0
-444 -443 0
-445 -443 0
-457 -443 0
-458 -443 0
-454 -443 0
-446 -443 0
-447 -443 0
-448 -443 0
-459 -443 0
-444 -443 0
-445 -444 0
-457 -444 0
-458 -444 0
-454 -444 0
-446 -444 0
-447 -444 0
-448 -444 0
-459 -444 0
-445 -443 0
-445 -444 0
-457 -445 0
-458 -445 0
-454 -445 0
-446 -445 0
-447 -445 0
-448 -445 0
-459 -445 0
-457 -452 0
-457 -443 0
-457 -444 0
-457 -445 0
-458 -457 0
-457 -454 0
-457 -446 0
-457 -447 0
-457 -448 0
-459 -457 0
-457 -449 0
-458 -452 0
-458 -443 0
-458 -444 0
-458 -445 0
-458 -457 0
-458 -454 0
-458 -446 0
-458 -447 0
-458 -448 0
-459 -458 0
-458 -449 0
-454 -452 0
-478 -454 0
-454 -443 0
-454 -444 0
-454 -445 0
-457 -454 0
-458 -454 0
-454 -450 0
-456 -454 0
-454 -451 0
-454 -446 0
-454 -447 0
-454 -448 0
-459 -454 0
-454 -442 0
-454 -449 0
-454 -450 0
-456 -450 0
-451 -450 0
-450 -446 0
-450 -447 0
-450 -448 0
-459 -450 0
-456 -452 0
-456 -454 0
-456 -450 0
-456 -451 0
-456 -446 0
-456 -447 0
-456 -448 0
-459 -456 0
-456 -442 0
-456 -449 0
-479 444 445 454 457 458 459 0
-451 -443 0
-451 -444 0
-451 -445 0
-454 -451 0
-451 -450 0
-456 -451 0
-451 -446 0
-451 -447 0
-451 -448 0
-459 -451 0
-478 -446 0
-446 -443 0
-446 -444 0
-446 -445 0
-457 -446 0
-458 -446 0
-454 -446 0
-450 -446 0
-456 -446 0
-451 -446 0
-447 -446 0
-448 -446 0
-459 -446 0
-478 -447 0
-447 -443 0
-447 -444 0
-447 -445 0
-457 -447 0
-458 -447 0
-454 -447 0
-450 -447 0
-456 -447 0
-451 -447 0
-447 -446 0
-448 -447 0
-459 -447 0
-448 97 0
-483 -448 0
-484 -448 0
-448 -443 0
-448 -444 0
-448 -445 0
-457 -448 0
-458 -448 0
-454 -448 0
-450 -448 0
-456 -448 0
-451 -448 0
-448 -446 0
-448 -447 0
-459 -448 0
-459 97 0
-485 -459 0
-483 -459 0
-484 -459 0
-459 -443 0
-459 -444 0
-459 -445 0
-459 -457 0
-459 -458 0
-459 -454 0
-459 -450 0
-459 -456 0
-459 -451 0
-459 -446 0
-459 -447 0
-459 -448 0
-459 -442 0
-459 -449 0
-508 -117 0
-516 434 517 0
-520 521 522 523 0
-524 -520 0
-525 -520 0
-522 -521 0
-523 -521 0
-522 -302 0
-522 -311 0
-522 -521 0
-523 -522 0
-523 409 412 528 0
-523 -302 0
-523 -311 0
-523 -521 0
-523 -522 0
-524 97 0
-524 521 522 523 0
-525 -524 0
-524 -119 0
-524 -137 0
-524 -150 0
-524 -520 0
-525 97 0
-525 521 522 523 0
-525 -524 0
-525 -520 0
-436 -349 529 530 0
-349 -103 107 108 436 0
-349 -103 529 530 0
-349 -107 529 530 0
-349 -108 529 530 0
-434 548 0
-434 549 550 0
-434 100 0
-434 551 0
-434 529 530 0
-559 -558 0
-560 -558 0
-548 100 0
-548 551 0
-550 -549 0
-550 -549 0
-560 -559 0
-560 -558 0
-560 103 104 105 0
-575 434 0
-575 414 0
-575 -407 0
-575 -409 0
-575 -520 0
-575 -524 0
-576 -575 0
-577 -575 0
-578 -575 0
-579 558 559 0
-559 -558 0
-560 -559 0
-559 103 104 105 0
-601 -580 0
-600 -580 0
-599 -580 0
-598 -580 0
-597 -580 0
-596 -580 0
-595 -580 0
-594 -580 0
-593 -580 0
-592 -580 0
-591 -580 0
-590 -580 0
-589 -580 0
-588 -580 0
-587 -580 0
-586 -580 0
-585 -580 0
-584 -580 0
-583 -580 0
-580 581 582 0
-580 -346 0
-580 -345 0
-580 -344 0
-580 -343 0
-580 -342 0
-580 -341 0
-580 -340 0
-580 -339 0
-580 -338 0
-580 -337 0
-580 -336 0
-580 -335 0
-580 -334 0
-580 -333 0
-580 -332 0
-580 -331 0
-580 -330 0
-580 -329 0
-580 -328 0
-580 -327 0
-580 -325 0
-580 -324 0
-580 -323 0
-580 -322 0
-580 -321 0
-580 -320 0
-580 -319 0
-580 -318 0
-580 -317 0
-580 -316 0
-580 -315 0
-580 -314 0
-580 -313 0
-580 -312 0
-580 -311 0
-580 -310 0
-580 -309 0
-580 -308 0
-580 -307 0
-580 -306 0
-580 -305 0
-580 -304 0
-580 -303 0
-580 -302 0
-580 -301 0
-580 -300 0
-580 -299 0
-580 -298 0
-580 -297 0
-580 -296 0
-580 -295 0
-580 -294 0
-580 -293 0
-580 -292 0
-580 -291 0
-580 -290 0
-580 -289 0
-580 -288 0
-580 -287 0
-580 -286 0
-580 -285 0
-580 -284 0
-580 -283 0
-580 -282 0
-580 -281 0
-580 -280 0
-580 -279 0
-580 -276 0
-580 -275 0
-580 -274 0
-580 -273 0
-580 -272 0
-580 -271 0
-580 -270 0
-580 -269 0
-580 -268 0
-580 -267 0
-580 -266 0
-580 -265 0
-580 -264 0
-580 -263 0
-580 -262 0
-580 -261 0
-580 -260 0
-580 -259 0
-580 -258 0
-580 -257 0
-580 -256 0
-580 -255 0
-580 -253 0
-580 -252 0
-580 -251 0
-580 -250 0
-580 -249 0
-580 -248 0
-580 -247 0
-580 -246 0
-580 -245 0
-580 -244 0
-580 -243 0
-580 -242 0
-580 -241 0
-580 -240 0
-580 -239 0
-580 -238 0
-580 -237 0
-580 -236 0
-580 -235 0
-580 -234 0
-580 -233 0
-580 -232 0
-580 -231 0
-580 -229 0
-580 -228 0
-580 -226 0
-580 -225 0
-580 -224 0
-580 -223 0
-580 -222 0
-580 -221 0
-580 -220 0
-580 -219 0
-580 -218 0
-580 -217 0
-580 -216 0
-580 -215 0
-580 -214 0
-580 -213 0
-580 -212 0
-580 -211 0
-580 -210 0
-580 -209 0
-580 -208 0
-580 -207 0
-580 -206 0
-580 -205 0
-580 -204 0
-580 -203 0
-580 -202 0
-580 -201 0
-580 -200 0
-580 -199 0
-580 -198 0
-580 -197 0
-580 -196 0
-580 -195 0
-580 -194 0
-580 -193 0
-580 -192 0
-580 -191 0
-580 -190 0
-580 -189 0
-580 -188 0
-580 -187 0
-580 -186 0
-580 -185 0
-580 -184 0
-580 -183 0
-580 -182 0
-580 -181 0
-580 -180 0
-580 -179 0
-580 -178 0
-580 -177 0
-580 -176 0
-580 -175 0
-580 -174 0
-580 -173 0
-580 -172 0
-580 -171 0
-580 -170 0
-580 -168 0
-580 -167 0
-580 -166 0
-580 -164 0
-580 -163 0
-580 -162 0
-580 -161 0
-580 -160 0
-580 -159 0
-580 -158 0
-580 -157 0
-580 -156 0
-580 -155 0
-580 -154 0
-580 -153 0
-580 -152 0
-580 -151 0
-580 -150 0
-580 -149 0
-580 -148 0
-580 -147 0
-580 -146 0
-580 -145 0
-580 -144 0
-580 -143 0
-580 -142 0
-580 -141 0
-580 -139 0
-580 -138 0
-580 -137 0
-580 -136 0
-580 -135 0
-580 -134 0
-580 -133 0
-580 -132 0
-580 -131 0
-580 -130 0
-580 -129 0
-580 -128 0
-580 -127 0
-580 -126 0
-580 -125 0
-580 -124 0
-580 -123 0
-580 -122 0
-580 -121 0
-580 -120 0
-580 -119 0
-580 -118 0
-580 -115 0
-580 -113 0
-580 -112 0
-580 111 0
-580 110 0
-580 106 107 108 109 0
-580 103 104 105 107 108 109 0
-580 100 0
-580 99 101 102 0
-580 97 98 99 0
-580 -96 0
-610 -584 0
-609 -584 0
-608 -584 0
-607 -584 0
-606 -584 0
-605 -584 0
-604 -584 0
-603 -584 0
-602 -584 0
-598 -584 0
-584 -583 0
-584 -580 0
-584 -346 0
-584 -345 0
-584 -344 0
-584 -343 0
-584 -341 0
-584 -340 0
-584 -339 0
-584 -334 0
-584 -333 0
-584 -331 0
-584 -330 0
-584 -329 0
-584 -325 0
-584 -318 0
-584 -317 0
-584 -316 0
-584 -315 0
-584 -309 0
-584 -305 0
-584 -298 0
-584 -297 0
-584 -288 0
-584 -284 0
-584 -282 0
-584 -279 0
-584 -254 0
-584 -252 0
-584 -228 0
-584 -204 0
-584 -197 0
-584 -193 0
-584 -183 0
-584 -182 0
-584 -176 0
-584 -95 0
-584 -94 0
-584 -93 0
-584 -91 0
-584 -90 0
-584 -89 0
-584 -88 0
-584 -87 0
-584 -86 0
-584 -84 0
-584 -80 0
-584 -79 0
-584 -78 0
-584 -77 0
-584 -72 0
-584 -71 0
-584 -70 0
-584 -69 0
-584 -68 0
-584 -67 0
-584 -66 0
-584 -65 0
-584 -64 0
-584 -63 0
-584 -62 0
-584 -61 0
-584 -60 0
-584 -59 0
-584 -58 0
-584 -57 0
-584 -56 0
-584 -55 0
-584 -54 0
-584 -53 0
-584 -52 0
-584 -51 0
-584 -50 0
-584 -49 0
-584 -48 0
-584 -47 0
-584 -46 0
-584 -45 0
-584 -44 0
-584 -43 0
-584 -42 0
-584 -41 0
-584 -40 0
-584 -39 0
-584 -38 0
-584 -37 0
-584 -36 0
-584 -35 0
-584 -34 0
-584 -33 0
-584 -32 0
-584 -31 0
-584 -30 0
-584 -29 0
-584 -28 0
-584 -27 0
-584 -26 0
-584 -25 0
-584 -24 0
-584 -23 0
-584 -22 0
-584 -21 0
-611 -116 0
-611 117 0
-619 516 0
-619 -483 0
-619 -484 0
-622 551 0
-623 -622 0
-622 -576 0
-627 443 444 445 446 447 448 450 451 454 456 457 458 459 0
-628 -627 0
-629 -627 0
-629 -584 0
-629 -628 0
-629 -627 0
-628 443 444 445 446 447 448 450 451 454 456 457 458 459 0
-628 -627 0
-629 -628 0
-632 107 108 0
-436 -107 529 530 0
-436 -108 529 530 0
-636 -117 0
-636 116 0
-639 549 550 0
-641 642 0
-530 -529 0
-530 -529 0
-650 97 0
-650 -349 0
-650 -103 0
-652 97 0
-652 349 0
-653 -106 0
-658 -653 0
-349 -103 0
-104 -103 0
-105 -103 0
-107 -103 0
-108 -103 0
-104 -103 0
-105 -104 0
-107 -104 0
-108 -104 0
-105 -103 0
-105 -104 0
-107 -105 0
-108 -105 0
-107 97 0
-107 -103 0
-107 -104 0
-107 -105 0
-108 -107 0
-107 -106 0
-108 97 0
-108 -103 0
-108 -104 0
-108 -105 0
-108 -107 0
-108 -106 0
-671 103 104 105 0
-671 -653 0
-671 -106 0
-671 -658 0
-106 103 104 105 0
-653 -106 0
-658 -106 0
-658 103 104 105 107 108 0
-658 -349 103 104 105 108 0
-658 -653 0
-658 -106 0
-107 -99 0
-108 -99 0
-99 -97 0
-99 -98 0
-101 -99 0
-102 -99 0
-623 -622 0
-623 -576 0
-622 -576 0
-623 -576 0
-685 -684 0
-686 -684 0
-691 692 693 694 695 696 697 698 0
-700 -699 0
-699 -685 0
-699 -686 0
-701 -691 0
-701 -692 0
-701 -693 0
-701 -694 0
-701 -695 0
-701 -696 0
-701 -697 0
-701 -698 0
-700 -692 0
-692 -685 0
-692 -686 0
-692 -684 0
-701 -692 0
-693 -692 0
-694 -692 0
-695 -692 0
-696 -692 0
-697 -692 0
-698 -692 0
-701 -693 0
-693 -692 0
-694 -693 0
-695 -693 0
-696 -693 0
-697 -693 0
-698 -693 0
-700 -694 684 0
-694 -685 0
-694 -686 0
-701 -694 0
-694 -692 0
-694 -693 0
-695 -694 0
-696 -694 0
-697 -694 0
-698 -694 0
-695 686 700 0
-695 -684 686 0
-701 -695 0
-695 -692 0
-695 -693 0
-695 -694 0
-696 -695 0
-697 -695 0
-698 -695 0
-700 -696 0
-696 -686 0
-696 -684 0
-701 -696 0
-696 -692 0
-696 -693 0
-696 -694 0
-696 -695 0
-697 -696 0
-698 -696 0
-697 -685 0
-697 -684 0
-701 -697 0
-697 -692 0
-697 -693 0
-697 -694 0
-697 -695 0
-697 -696 0
-698 -697 0
-700 -698 0
-698 -685 165 0
-698 -686 0
-698 -684 0
-701 -698 0
-698 -692 0
-698 -693 0
-698 -694 0
-698 -695 0
-698 -696 0
-698 -697 0
-700 -699 0
-700 -686 0
-700 -685 0
-699 -685 0
-686 -685 0
-685 -684 0
-700 -685 0
-699 -686 0
-700 -686 0
-686 -685 0
-686 -684 0
-165 -164 0
-187 -165 0
-203 -165 0
-485 -454 -116 0
-485 -456 -116 0
-485 -479 -116 0
-485 -459 -116 0
-627 -485 -116 0
-629 -485 -116 0
-628 -485 -116 0
-485 -117 0
-485 116 0
-102 -101 0
-101 -99 0
-102 -99 0
-102 -101 0
-739 -117 0
-739 116 0
-754 -753 0
-755 -753 0
-753 517 0
-756 -754 0
-756 517 0
-754 517 0
-754 -753 0
-756 -754 0
-755 -754 0
-754 -156 757 0
-755 -753 0
-755 -754 0
-755 517 0
-757 753 754 755 756 0
-757 156 753 755 756 0
-758 -452 0
-758 -414 0
-528 510 0
-760 -452 0
-760 -414 0
-577 414 0
-577 761 0
-762 -577 0
-762 761 0
-762 -577 0
-578 414 0
-454 -452 0
-456 -452 0
-459 -452 0
-452 -449 0
-758 -452 0
-760 -452 0
-763 -452 0
-452 109 582 0
-764 549 550 0
-765 -764 0
-764 -414 0
-766 549 550 0
-766 -765 0
-766 -414 0
-767 768 0
-770 -767 0
-765 549 550 0
-765 -764 0
-766 -765 0
-770 549 550 0
-770 -768 0
-770 -767 0
-404 -403 0
-414 -403 0
-582 -581 0
-582 -581 0
-786 -783 0
-787 -783 0
-788 -783 0
-789 -783 0
-790 -783 0
-791 -783 0
-792 -783 0
-793 -783 0
-786 -783 0
-787 -786 0
-788 -786 0
-789 -786 0
-790 -786 0
-791 -786 0
-792 -786 0
-793 -786 0
-787 -783 0
-787 -786 0
-788 -787 0
-789 -787 0
-790 -787 0
-791 -787 0
-792 -787 0
-793 -787 0
-788 -783 0
-788 -786 0
-788 -787 0
-789 -788 0
-790 -788 0
-791 -788 0
-792 -788 0
-793 -788 0
-789 -783 0
-789 -786 0
-789 -787 0
-789 -788 0
-790 -789 0
-791 -789 0
-792 -789 0
-793 -789 0
-790 -783 0
-790 -786 0
-790 -787 0
-790 -788 0
-790 -789 0
-791 -790 0
-792 -790 0
-793 -790 0
-791 -783 0
-791 -786 0
-791 -787 0
-791 -788 0
-791 -789 0
-791 -790 0
-792 -791 0
-793 -791 0
-792 -783 0
-792 -786 0
-792 -787 0
-792 -788 0
-792 -789 0
-792 -790 0
-792 -791 0
-793 -792 0
-793 -783 0
-793 -786 0
-793 -787 0
-793 -788 0
-793 -789 0
-793 -790 0
-793 -791 0
-793 -792 0
-795 103 104 105 0
-795 796 0
-796 103 104 105 107 108 798 0
-796 107 108 795 798 0
-796 -580 798 0
-797 -796 798 0
-799 -757 0
-799 -756 0
-799 -755 0
-799 -754 0
-799 -739 0
-799 -700 0
-799 -686 0
-799 -640 0
-799 -622 0
-799 -619 0
-799 -558 0
-799 -530 0
-799 -529 0
-799 -528 0
-799 -525 0
-799 -523 0
-799 -516 0
-799 -486 0
-799 -479 0
-799 -459 0
-799 -454 0
-799 -449 0
-799 -434 0
-799 -414 0
-799 -412 0
-799 -409 0
-799 -408 0
-799 -407 0
-799 -405 0
-799 -397 0
-799 -385 0
-799 164 187 203 0
-799 109 0
-799 -101 0
-819 -818 0
-819 -818 0
-825 165 0
-763 -452 0
-828 580 0
-797 -109 0
-797 -109 0
-831 139 0
-798 103 0
-798 796 0
-835 -116 105 0
-835 -116 811 0
-835 -116 263 0
-835 -117 0
-835 116 0
-483 -116 516 0
-483 -116 517 0
-483 -116 548 0
-483 -116 100 0
-619 -483 -116 0
-483 -448 -116 0
-483 -459 -116 0
-483 -117 0
-483 116 0
-484 -483 0
-484 516 0
-484 517 0
-484 548 0
-484 100 0
-619 -484 0
-484 -448 0
-484 -459 0
-484 -483 0
-414 -116 508 0
-414 -116 549 550 0
-414 -116 641 0
-414 -116 642 0
-414 -116 768 770 0
-452 -414 -116 0
-764 -414 -116 0
-766 -414 -116 0
-414 -403 -116 0
-414 -117 549 550 0
-414 -117 641 0
-414 -117 642 0
-414 -117 768 770 0
-452 -414 -117 0
-764 -414 -117 0
-766 -414 -117 0
-414 -403 -117 0
-836 -116 0
-836 117 0
-768 523 0
-768 510 0
-768 763 0
-768 528 0
-768 767 0
-768 414 0
1 4 6 7 8 9 10 12 14 17 18 19 20 0
-104 348 349 350 361 374 376 0
-105 348 349 350 361 374 376 0
104 105 107 108 348 350 361 374 376 0
-107 348 349 350 361 374 376 0
-108 348 349 350 361 374 376 0
-349 -107 348 350 361 374 376 0
-349 -108 348 350 361 374 376 0
-349 -104 348 350 361 374 376 0
-349 -105 348 350 361 374 376 0
-580 97 98 99 0
-107 97 98 99 0
-108 97 98 99 0
-96 97 98 99 0
-113 97 98 99 0
-597 384 385 0
-338 384 385 0
-336 384 385 0
-323 384 385 0
-321 384 385 0
-314 384 385 0
-312 384 385 0
-311 384 385 0
-310 384 385 0
-307 384 385 0
-304 384 385 0
-303 384 385 0
-300 384 385 0
-299 384 385 0
-293 384 385 0
-292 384 385 0
-291 384 385 0
-289 384 385 0
-287 384 385 0
-286 384 385 0
-285 384 385 0
-283 384 385 0
-278 384 385 0
-276 384 385 0
-275 384 385 0
-274 384 385 0
-273 384 385 0
-272 384 385 0
-271 384 385 0
-270 384 385 0
-269 384 385 0
-268 384 385 0
-267 384 385 0
-266 384 385 0
-265 384 385 0
-264 384 385 0
-263 384 385 0
-258 384 385 0
-255 384 385 0
-253 384 385 0
-250 384 385 0
-247 384 385 0
-246 384 385 0
-245 384 385 0
-244 384 385 0
-243 384 385 0
-242 384 385 0
-241 384 385 0
-240 384 385 0
-239 384 385 0
-238 384 385 0
-236 384 385 0
-234 384 385 0
-231 384 385 0
-229 384 385 0
-226 384 385 0
-225 384 385 0
-223 384 385 0
-222 384 385 0
-221 384 385 0
-220 384 385 0
-219 384 385 0
-218 384 385 0
-216 384 385 0
-215 384 385 0
-214 384 385 0
-213 384 385 0
-212 384 385 0
-211 384 385 0
-210 384 385 0
-209 384 385 0
-208 384 385 0
-207 384 385 0
-206 384 385 0
-205 384 385 0
-203 384 385 0
-201 384 385 0
-196 384 385 0
-195 384 385 0
-194 384 385 0
-192 384 385 0
-191 384 385 0
-190 384 385 0
-189 384 385 0
-188 384 385 0
-186 384 385 0
-185 384 385 0
-184 384 385 0
-181 384 385 0
-180 384 385 0
-179 384 385 0
-178 384 385 0
-177 384 385 0
-174 384 385 0
-173 384 385 0
-172 384 385 0
-171 384 385 0
-170 384 385 0
-159 384 385 0
-132 384 385 0
-131 384 385 0
-130 384 385 0
-129 384 385 0
-128 384 385 0
-127 384 385 0
-126 384 385 0
-125 384 385 0
-121 384 385 0
-120 384 385 0
-118 384 385 0
-115 384 385 0
-414 -116 508 0
-768 510 0
-517 -483 516 0
-483 -434 516 0
-517 -484 516 0
-484 -434 516 0
-768 -409 302 311 521 522 523 0
-768 -412 302 311 521 522 523 0
-768 -528 302 311 521 522 523 0
-483 517 0
-484 517 0
-551 -483 -100 548 0
-551 -484 -100 548 0
-414 549 550 0
-580 100 0
-483 100 0
-484 100 0
-96 100 0
-113 100 0
96 112 113 115 118 119 120 121 122 123 124 125 126 127 128 129 130 131 132 133 134 135 136 137 138 139 141 142 143 144 145 146 147 148 149 150 151 152 153 154 155 156 157 158 159 160 161 162 163 164 166 167 168 170 171 172 173 174 175 176 177 178 179 180 181 182 183 184 185 186 187 188 189 190 191 192 193 194 195 196 197 198 199 200 201 202 203 204 205 206 207 208 209 210 211 212 213 214 215 216 217 218 219 220 221 222 223 224 225 226 228 229 231 232 233 234 235 236 237 238 239 240 241 242 243 244 245 246 247 248 249 250 251 252 253 255 256 257 258 259 260 261 262 263 264 265 266 267 268 269 270 271 272 273 274 275 276 279 280 281 282 283 284 285 286 287 288 289 290 291 292 293 294 295 296 297 298 299 300 301 302 303 304 305 306 307 308 309 310 311 312 313 314 315 316 317 318 319 320 321 322 323 324 325 327 328 329 330 331 332 333 334 335 336 337 338 339 340 341 342 343 344 345 346 580 583 584 585 586 587 588 589 590 591 592 593 594 595 596 597 598 599 600 601 0
21 22 23 24 25 26 27 28 29 30 31 32 33 34 35 36 37 38 39 40 41 42 43 44 45 46 47 48 49 50 51 52 53 54 55 56 57 58 59 60 61 62 63 64 65 66 67 68 69 70 71 72 77 78 79 80 84 86 87 88 89 90 91 93 94 95 580 583 584 602 603 604 605 606 607 608 609 610 0
-642 -414 641 0
-414 642 0
-436 -349 -104 529 530 0
-436 -349 -105 529 530 0
-349 -107 529 530 0
-436 -107 529 530 0
-349 -108 529 530 0
-436 -108 529 530 0
-434 529 530 0
103 104 105 107 108 349 0
-109 -103 106 107 108 653 658 671 0
-109 -104 106 107 108 653 658 671 0
-109 -105 106 107 108 653 658 671 0
-580 -103 106 107 108 109 653 658 0
-580 -104 106 107 108 109 653 658 0
-580 -105 106 107 108 109 653 658 0
-103 -96 106 107 108 109 653 658 0
-104 -96 106 107 108 109 653 658 0
-105 -96 106 107 108 109 653 658 0
-113 -103 106 107 108 109 653 658 0
-113 -104 106 107 108 109 653 658 0
-113 -105 106 107 108 109 653 658 0
692 693 694 695 696 697 698 701 0
-580 99 101 102 0
-96 99 101 102 0
-113 99 101 102 0
414 452 758 0
-768 -510 528 0
414 452 760 0
-768 767 770 0
-549 -414 767 768 770 0
-550 -414 767 768 770 0
-580 581 582 0
-835 811 0
-580 110 0
-96 110 0
-113 110 0
-580 111 0
-96 111 0
-113 111 0
-768 452 763 0
109 797 0
116 117 0
-117 -116 0
